
Gurobi 10.0.3 (linux64, gurobi_cl) logging started Fri Jan 17 15:36:06 2025

Set parameter Username
Set parameter TimeLimit to value 3600
Set parameter LogFile to value "gurobi_1737124556.log"
Set parameter Threads to value 4
Academic license - for non-commercial use only - expires 2025-12-13
Using license file /home/familie/gurobi.lic

Gurobi Optimizer version 10.0.3 build v10.0.3rc0 (linux64)
Copyright (c) 2023, Gurobi Optimization, LLC

Read LP format model from file /tmp/340b77630cea4c8880f9782c0bb76918-pulp.lp
Reading time = 0.13 seconds
Minimize_total_costs: 11514 rows, 9604 columns, 519034 nonzeros

CPU model: AMD Ryzen 7 PRO 4750U with Radeon Graphics, instruction set [SSE2|AVX|AVX2]
Thread count: 8 physical cores, 16 logical processors, using up to 4 threads

Optimize a model with 11514 rows, 9604 columns and 519034 nonzeros
Model fingerprint: 0x47ced678
Variable types: 0 continuous, 9604 integer (9604 binary)
Coefficient statistics:
  Matrix range     [1e+00, 2e+03]
  Objective range  [1e-02, 8e+01]
  Bounds range     [1e+00, 1e+00]
  RHS range        [1e+00, 7e+01]
Presolve removed 120 rows and 0 columns
Presolve time: 1.38s
Presolved: 11394 rows, 9604 columns, 516638 nonzeros
Variable types: 0 continuous, 9604 integer (9604 binary)
Warning: Markowitz tolerance tightened to 0.125

Root relaxation: objective 7.000000e+01, 3282 iterations, 0.69 seconds (1.35 work units)

    Nodes    |    Current Node    |     Objective Bounds      |     Work
 Expl Unexpl |  Obj  Depth IntInf | Incumbent    BestBd   Gap | It/Node Time

     0     0   70.00000    0  228          -   70.00000      -     -    2s
     0     0   70.00292    0  199          -   70.00292      -     -    3s
     0     0   70.00292    0  199          -   70.00292      -     -    3s
     0     0  140.00000    0  210          -  140.00000      -     -    4s
     0     0  140.00000    0  230          -  140.00000      -     -    4s
     0     0  140.00000    0  217          -  140.00000      -     -    4s
     0     0  140.00000    0  210          -  140.00000      -     -    4s
     0     0  140.00026    0  107          -  140.00026      -     -    4s
     0     0  140.00026    0  109          -  140.00026      -     -    4s
     0     0  140.01459    0  112          -  140.01459      -     -    4s
     0     0  140.01459    0  112          -  140.01459      -     -    5s
     0     0  143.05603    0  136          -  143.05603      -     -    5s
     0     0  143.05603    0  136          -  143.05603      -     -    5s
     0     0  144.53016    0  139          -  144.53016      -     -    5s
     0     0  144.53016    0  143          -  144.53016      -     -    5s
     0     0  146.31535    0  146          -  146.31535      -     -    5s
     0     0  147.70492    0  144          -  147.70492      -     -    5s
     0     0  147.70492    0  144          -  147.70492      -     -    5s
     0     0  148.55949    0  143          -  148.55949      -     -    6s
     0     0  148.55949    0  145          -  148.55949      -     -    6s
     0     0  154.44103    0  152          -  154.44103      -     -    6s
     0     0  154.44103    0  153          -  154.44103      -     -    6s
     0     0  154.44103    0  155          -  154.44103      -     -    7s
     0     0  154.44103    0  157          -  154.44103      -     -    7s
     0     0  154.44103    0   87          -  154.44103      -     -    7s
     0     0  154.44103    0   91          -  154.44103      -     -    8s
     0     0  154.44103    0   94          -  154.44103      -     -    8s
     0     0  154.44103    0   96          -  154.44103      -     -    8s
     0     0  154.44103    0   87          -  154.44103      -     -    8s
H    0     0                     294.7464000  154.44103  47.6%     -    8s
     0     0  154.44103    0   84  294.74640  154.44103  47.6%     -    9s
H    0     0                     294.5910000  154.44103  47.6%     -    9s
     0     2  154.44103    0   84  294.59100  154.44103  47.6%     -    9s
H   28    26                     294.5664000  217.00341  26.3%  52.6    9s
H   31    26                     294.5556000  217.00341  26.3%  48.7    9s
    32    34  224.02663    9   87  294.55560  217.00341  26.3%  49.5   10s
  1325   895  217.04920   40   84  294.55560  217.00341  26.3%  12.2   34s
H 1326   851                     294.5418000  217.00341  26.3%  12.2   35s
  1328   852  217.03692   23   96  294.54180  217.00341  26.3%  12.2   41s
  1331   854  217.06300   64  112  294.54180  217.00341  26.3%  12.1   45s
  1333   855  224.03999   18   96  294.54180  217.00341  26.3%  12.1   51s
  1335   857  217.02460   55  114  294.54180  217.01740  26.3%  12.1   55s
  1337   858  217.02460   35   94  294.54180  217.02100  26.3%  12.1   60s
  1338   859  294.03840   29   97  294.54180  217.02100  26.3%  12.1   65s
H 1339   815                     294.5310000  217.02190  26.3%  12.1   73s
  1341   817  224.05280   41   90  294.53100  217.02190  26.3%  12.0   75s
  1342   817  217.03540   61   72  294.53100  217.02460  26.3%  12.0   80s
  1344   819  217.02460   31   94  294.53100  217.02460  26.3%  12.0   89s
  1346   820  224.05422   33   87  294.53100  217.02460  26.3%  12.0   96s

Cutting planes:
  Gomory: 7
  Lift-and-project: 8
  Cover: 2
  Clique: 9
  MIR: 5
  Flow cover: 37
  Inf proof: 2
  Zero half: 13

Explored 1347 nodes (40409 simplex iterations) in 98.40 seconds (44.15 work units)
Thread count was 4 (of 16 available processors)

Solution count 6: 294.531 294.542 294.556 ... 294.746

Solve interrupted
Best objective 2.945310000000e+02, best bound 2.170246000000e+02, gap 26.3152%

Wrote result file '/tmp/340b77630cea4c8880f9782c0bb76918-pulp.sol'

